(set-info :smt-lib-version 2.6)
(set-info :category "crafted")
(set-logic QF_FF)
(define-sort FF0 () (_ FiniteField 52435875175126190479447740508185965837690552500527637822603658699938581184513))
(declare-fun _50_alt () FF0)
(declare-fun _41_alt () FF0)
(declare-fun _49_alt () FF0)
(declare-fun _43_alt () FF0)
(declare-fun _48_alt () FF0)
(declare-fun _47_alt () FF0)
(declare-fun _9_alt () FF0)
(declare-fun _6_alt () FF0)
(declare-fun _46_alt () FF0)
(declare-fun _3_alt () FF0)
(declare-fun _45_alt () FF0)
(declare-fun _11_alt () FF0)
(declare-fun _44_alt () FF0)
(declare-fun _0_alt () FF0)
(declare-fun _4_alt () FF0)
(declare-fun _1_alt () FF0)
(declare-fun _19_alt () FF0)
(declare-fun _40_alt () FF0)
(declare-fun _33_alt () FF0)
(declare-fun _32_alt () FF0)
(declare-fun _39_alt () FF0)
(declare-fun _36_alt () FF0)
(declare-fun _38_alt () FF0)
(declare-fun _37_alt () FF0)
(declare-fun _28_alt () FF0)
(declare-fun _22_alt () FF0)
(declare-fun _35_alt () FF0)
(declare-fun _10_alt () FF0)
(declare-fun _16_alt () FF0)
(declare-fun _15_alt () FF0)
(declare-fun _8_alt () FF0)
(declare-fun _7_alt () FF0)
(declare-fun _27_alt () FF0)
(declare-fun _26_alt () FF0)
(declare-fun _23_alt () FF0)
(declare-fun _25_alt () FF0)
(declare-fun _5_alt () FF0)
(declare-fun _18_alt () FF0)
(declare-fun _2_alt () FF0)
(declare-fun _50 () FF0)
(declare-fun _41 () FF0)
(declare-fun _49 () FF0)
(declare-fun _43 () FF0)
(declare-fun _48 () FF0)
(declare-fun _47 () FF0)
(declare-fun _9 () FF0)
(declare-fun _6 () FF0)
(declare-fun _46 () FF0)
(declare-fun _3 () FF0)
(declare-fun _45 () FF0)
(declare-fun _11 () FF0)
(declare-fun _44 () FF0)
(declare-fun _0 () FF0)
(declare-fun _4 () FF0)
(declare-fun _1 () FF0)
(declare-fun _19 () FF0)
(declare-fun _40 () FF0)
(declare-fun _33 () FF0)
(declare-fun _32 () FF0)
(declare-fun _39 () FF0)
(declare-fun _36 () FF0)
(declare-fun _38 () FF0)
(declare-fun _37 () FF0)
(declare-fun _28 () FF0)
(declare-fun _22 () FF0)
(declare-fun _35 () FF0)
(declare-fun _10 () FF0)
(declare-fun _16 () FF0)
(declare-fun _15 () FF0)
(declare-fun _8 () FF0)
(declare-fun _7 () FF0)
(declare-fun _27 () FF0)
(declare-fun _26 () FF0)
(declare-fun _23 () FF0)
(declare-fun _25 () FF0)
(declare-fun _5 () FF0)
(declare-fun _18 () FF0)
(declare-fun _2 () FF0)
(declare-fun out_alt () FF0)
(declare-fun out () FF0)
(assert 
  (let ((let0 _50_alt))
  (let ((let1 _41_alt))
  (let ((let2 _49_alt))
  (let ((let3 (ff.mul let2 let1)))
  (let ((let4 (= let3 let0)))
  (let ((let5 _43_alt))
  (let ((let6 _48_alt))
  (let ((let7 (ff.mul let6 let5)))
  (let ((let8 (= let7 let2)))
  (let ((let9 (as ff1 FF0)))
  (let ((let10 (as ff52435875175126190479447740508185965837690552500527637822603658699938581184512 FF0)))
  (let ((let11 (ff.mul let6 let10)))
  (let ((let12 _47_alt))
  (let ((let13 _9_alt))
  (let ((let14 (ff.mul let13 let10)))
  (let ((let15 (ff.add let14 let12 let11 let9)))
  (let ((let16 (ff.add let14 let9)))
  (let ((let17 (ff.mul let16 let12)))
  (let ((let18 (= let17 let15)))
  (let ((let19 _6_alt))
  (let ((let20 _46_alt))
  (let ((let21 (ff.mul let20 let19)))
  (let ((let22 (= let21 let12)))
  (let ((let23 _3_alt))
  (let ((let24 _45_alt))
  (let ((let25 (ff.mul let24 let23)))
  (let ((let26 (= let25 let20)))
  (let ((let27 _11_alt))
  (let ((let28 _44_alt))
  (let ((let29 (ff.mul let28 let27)))
  (let ((let30 (= let29 let24)))
  (let ((let31 _0_alt))
  (let ((let32 (ff.mul let31 let31)))
  (let ((let33 (= let32 let28)))
  (let ((let34 (ff.mul let5 let10)))
  (let ((let35 _4_alt))
  (let ((let36 _1_alt))
  (let ((let37 (ff.add let36 let35 let34)))
  (let ((let38 (ff.mul let36 let35)))
  (let ((let39 (= let38 let37)))
  (let ((let40 _19_alt))
  (let ((let41 (ff.mul let40 let10)))
  (let ((let42 (ff.add let41 let9)))
  (let ((let43 _40_alt))
  (let ((let44 (ff.mul let43 let42)))
  (let ((let45 (= let44 let1)))
  (let ((let46 _33_alt))
  (let ((let47 _32_alt))
  (let ((let48 (ff.add let47 let46)))
  (let ((let49 _39_alt))
  (let ((let50 (ff.mul let49 let48)))
  (let ((let51 (= let50 let43)))
  (let ((let52 _36_alt))
  (let ((let53 _38_alt))
  (let ((let54 (ff.mul let53 let52)))
  (let ((let55 (= let54 let49)))
  (let ((let56 _37_alt))
  (let ((let57 (ff.mul let56 let35)))
  (let ((let58 (= let57 let53)))
  (let ((let59 _28_alt))
  (let ((let60 (ff.mul let48 let59)))
  (let ((let61 (= let60 let56)))
  (let ((let62 _22_alt))
  (let ((let63 _35_alt))
  (let ((let64 (ff.mul let63 let62)))
  (let ((let65 (= let64 let52)))
  (let ((let66 _10_alt))
  (let ((let67 (ff.mul let66 let36)))
  (let ((let68 (= let67 let63)))
  (let ((let69 _16_alt))
  (let ((let70 _15_alt))
  (let ((let71 (ff.add let70 let69)))
  (let ((let72 (ff.mul let59 let10)))
  (let ((let73 (ff.add let72 let9)))
  (let ((let74 (ff.mul let73 let71)))
  (let ((let75 (= let74 let46)))
  (let ((let76 _8_alt))
  (let ((let77 (ff.mul let59 let76)))
  (let ((let78 (= let77 let47)))
  (let ((let79 _7_alt))
  (let ((let80 (ff.mul let79 let10)))
  (let ((let81 (ff.add let80 let9)))
  (let ((let82 _27_alt))
  (let ((let83 (ff.mul let82 let81)))
  (let ((let84 (= let83 let59)))
  (let ((let85 _26_alt))
  (let ((let86 (ff.mul let85 let27)))
  (let ((let87 (= let86 let82)))
  (let ((let88 _23_alt))
  (let ((let89 _25_alt))
  (let ((let90 (ff.mul let89 let88)))
  (let ((let91 (= let90 let85)))
  (let ((let92 _5_alt))
  (let ((let93 (ff.mul let92 let10)))
  (let ((let94 (ff.add let93 let9)))
  (let ((let95 (ff.mul let94 let76)))
  (let ((let96 (= let95 let89)))
  (let ((let97 (ff.mul let88 let10)))
  (let ((let98 (ff.add let13 let62 let97)))
  (let ((let99 (ff.mul let13 let62)))
  (let ((let100 (= let99 let98)))
  (let ((let101 (ff.mul let62 let10)))
  (let ((let102 (ff.mul let66 let10)))
  (let ((let103 (ff.add let19 let102 let101 let9)))
  (let ((let104 (ff.add let102 let9)))
  (let ((let105 (ff.mul let104 let19)))
  (let ((let106 (= let105 let103)))
  (let ((let107 _18_alt))
  (let ((let108 (ff.add let70 let69 let107 let41)))
  (let ((let109 (ff.mul let107 let71)))
  (let ((let110 (= let109 let108)))
  (let ((let111 (ff.mul let107 let10)))
  (let ((let112 (ff.add let23 let79 let111)))
  (let ((let113 (ff.mul let23 let79)))
  (let ((let114 (= let113 let112)))
  (let ((let115 (ff.mul let35 let10)))
  (let ((let116 (ff.add let115 let9)))
  (let ((let117 (ff.mul let116 let92)))
  (let ((let118 (= let117 let69)))
  (let ((let119 _2_alt))
  (let ((let120 (ff.mul let35 let119)))
  (let ((let121 (= let120 let70)))
  (let ((let122 (ff.mul let27 let27)))
  (let ((let123 (= let122 let27)))
  (let ((let124 (ff.mul let66 let66)))
  (let ((let125 (= let124 let66)))
  (let ((let126 (ff.mul let13 let13)))
  (let ((let127 (= let126 let13)))
  (let ((let128 (ff.mul let76 let76)))
  (let ((let129 (= let128 let76)))
  (let ((let130 (ff.mul let79 let79)))
  (let ((let131 (= let130 let79)))
  (let ((let132 (ff.mul let19 let19)))
  (let ((let133 (= let132 let19)))
  (let ((let134 (ff.mul let92 let92)))
  (let ((let135 (= let134 let92)))
  (let ((let136 (ff.mul let35 let35)))
  (let ((let137 (= let136 let35)))
  (let ((let138 (ff.mul let23 let23)))
  (let ((let139 (= let138 let23)))
  (let ((let140 (ff.mul let119 let119)))
  (let ((let141 (= let140 let119)))
  (let ((let142 (ff.mul let36 let36)))
  (let ((let143 (= let142 let36)))
  (let ((let144 (= let32 let31)))
  (let ((let145 (and let144 let143 let141 let139 let137 let135 let133 let131 let129 let127 let125 let123 let121 let118 let114 let110 let106 let100 let96 let91 let87 let84 let78 let75 let68 let65 let61 let58 let55 let51 let45 let39 let33 let30 let26 let22 let18 let8 let4)))
  (let ((let146 _50))
  (let ((let147 _41))
  (let ((let148 _49))
  (let ((let149 (ff.mul let148 let147)))
  (let ((let150 (= let149 let146)))
  (let ((let151 _43))
  (let ((let152 _48))
  (let ((let153 (ff.mul let152 let151)))
  (let ((let154 (= let153 let148)))
  (let ((let155 (ff.mul let152 let10)))
  (let ((let156 _47))
  (let ((let157 _9))
  (let ((let158 (ff.mul let157 let10)))
  (let ((let159 (ff.add let158 let156 let155 let9)))
  (let ((let160 (ff.add let158 let9)))
  (let ((let161 (ff.mul let160 let156)))
  (let ((let162 (= let161 let159)))
  (let ((let163 _6))
  (let ((let164 _46))
  (let ((let165 (ff.mul let164 let163)))
  (let ((let166 (= let165 let156)))
  (let ((let167 _3))
  (let ((let168 _45))
  (let ((let169 (ff.mul let168 let167)))
  (let ((let170 (= let169 let164)))
  (let ((let171 _11))
  (let ((let172 _44))
  (let ((let173 (ff.mul let172 let171)))
  (let ((let174 (= let173 let168)))
  (let ((let175 _0))
  (let ((let176 (ff.mul let175 let175)))
  (let ((let177 (= let176 let172)))
  (let ((let178 (ff.mul let151 let10)))
  (let ((let179 _4))
  (let ((let180 _1))
  (let ((let181 (ff.add let180 let179 let178)))
  (let ((let182 (ff.mul let180 let179)))
  (let ((let183 (= let182 let181)))
  (let ((let184 _19))
  (let ((let185 (ff.mul let184 let10)))
  (let ((let186 (ff.add let185 let9)))
  (let ((let187 _40))
  (let ((let188 (ff.mul let187 let186)))
  (let ((let189 (= let188 let147)))
  (let ((let190 _33))
  (let ((let191 _32))
  (let ((let192 (ff.add let191 let190)))
  (let ((let193 _39))
  (let ((let194 (ff.mul let193 let192)))
  (let ((let195 (= let194 let187)))
  (let ((let196 _36))
  (let ((let197 _38))
  (let ((let198 (ff.mul let197 let196)))
  (let ((let199 (= let198 let193)))
  (let ((let200 _37))
  (let ((let201 (ff.mul let200 let179)))
  (let ((let202 (= let201 let197)))
  (let ((let203 _28))
  (let ((let204 (ff.mul let192 let203)))
  (let ((let205 (= let204 let200)))
  (let ((let206 _22))
  (let ((let207 _35))
  (let ((let208 (ff.mul let207 let206)))
  (let ((let209 (= let208 let196)))
  (let ((let210 _10))
  (let ((let211 (ff.mul let210 let180)))
  (let ((let212 (= let211 let207)))
  (let ((let213 _16))
  (let ((let214 _15))
  (let ((let215 (ff.add let214 let213)))
  (let ((let216 (ff.mul let203 let10)))
  (let ((let217 (ff.add let216 let9)))
  (let ((let218 (ff.mul let217 let215)))
  (let ((let219 (= let218 let190)))
  (let ((let220 _8))
  (let ((let221 (ff.mul let203 let220)))
  (let ((let222 (= let221 let191)))
  (let ((let223 _7))
  (let ((let224 (ff.mul let223 let10)))
  (let ((let225 (ff.add let224 let9)))
  (let ((let226 _27))
  (let ((let227 (ff.mul let226 let225)))
  (let ((let228 (= let227 let203)))
  (let ((let229 _26))
  (let ((let230 (ff.mul let229 let171)))
  (let ((let231 (= let230 let226)))
  (let ((let232 _23))
  (let ((let233 _25))
  (let ((let234 (ff.mul let233 let232)))
  (let ((let235 (= let234 let229)))
  (let ((let236 _5))
  (let ((let237 (ff.mul let236 let10)))
  (let ((let238 (ff.add let237 let9)))
  (let ((let239 (ff.mul let238 let220)))
  (let ((let240 (= let239 let233)))
  (let ((let241 (ff.mul let232 let10)))
  (let ((let242 (ff.add let157 let206 let241)))
  (let ((let243 (ff.mul let157 let206)))
  (let ((let244 (= let243 let242)))
  (let ((let245 (ff.mul let206 let10)))
  (let ((let246 (ff.mul let210 let10)))
  (let ((let247 (ff.add let163 let246 let245 let9)))
  (let ((let248 (ff.add let246 let9)))
  (let ((let249 (ff.mul let248 let163)))
  (let ((let250 (= let249 let247)))
  (let ((let251 _18))
  (let ((let252 (ff.add let214 let213 let251 let185)))
  (let ((let253 (ff.mul let251 let215)))
  (let ((let254 (= let253 let252)))
  (let ((let255 (ff.mul let251 let10)))
  (let ((let256 (ff.add let167 let223 let255)))
  (let ((let257 (ff.mul let167 let223)))
  (let ((let258 (= let257 let256)))
  (let ((let259 (ff.mul let179 let10)))
  (let ((let260 (ff.add let259 let9)))
  (let ((let261 (ff.mul let260 let236)))
  (let ((let262 (= let261 let213)))
  (let ((let263 _2))
  (let ((let264 (ff.mul let179 let263)))
  (let ((let265 (= let264 let214)))
  (let ((let266 (ff.mul let171 let171)))
  (let ((let267 (= let266 let171)))
  (let ((let268 (ff.mul let210 let210)))
  (let ((let269 (= let268 let210)))
  (let ((let270 (ff.mul let157 let157)))
  (let ((let271 (= let270 let157)))
  (let ((let272 (ff.mul let220 let220)))
  (let ((let273 (= let272 let220)))
  (let ((let274 (ff.mul let223 let223)))
  (let ((let275 (= let274 let223)))
  (let ((let276 (ff.mul let163 let163)))
  (let ((let277 (= let276 let163)))
  (let ((let278 (ff.mul let236 let236)))
  (let ((let279 (= let278 let236)))
  (let ((let280 (ff.mul let179 let179)))
  (let ((let281 (= let280 let179)))
  (let ((let282 (ff.mul let167 let167)))
  (let ((let283 (= let282 let167)))
  (let ((let284 (ff.mul let263 let263)))
  (let ((let285 (= let284 let263)))
  (let ((let286 (ff.mul let180 let180)))
  (let ((let287 (= let286 let180)))
  (let ((let288 (= let176 let175)))
  (let ((let289 (and let288 let287 let285 let283 let281 let279 let277 let275 let273 let271 let269 let267 let265 let262 let258 let254 let250 let244 let240 let235 let231 let228 let222 let219 let212 let209 let205 let202 let199 let195 let189 let183 let177 let174 let170 let166 let162 let154 let150)))
  (let ((let290 out_alt))
  (let ((let291 out))
  (let ((let292 (= let291 let290)))
  (let ((let293 (not let292)))
  (let ((let294 (= let157 let13)))
  (let ((let295 (= let220 let76)))
  (let ((let296 (= let163 let19)))
  (let ((let297 (= let263 let119)))
  (let ((let298 (= let223 let79)))
  (let ((let299 (= let236 let92)))
  (let ((let300 (= let210 let66)))
  (let ((let301 (= let179 let35)))
  (let ((let302 (= let167 let23)))
  (let ((let303 (= let175 let31)))
  (let ((let304 (= let180 let36)))
  (let ((let305 (= let171 let27)))
  (let ((let306 (and let305 let304 let303 let302 let301 let300 let299 let298 let297 let296 let295 let294)))
  (let ((let307 (and let306 let293 let289 let145)))
  let307
))))))))))))))))))))))))))))))))))))))))))))))))))))))))))))))))))))))))))))))))))))))))))))))))))))))))))))))))))))))))))))))))))))))))))))))))))))))))))))))))))))))))))))))))))))))))))))))))))))))))))))))))))))))))))))))))))))))))))))))))))))))))))))))))))))))))))))))))))))))))))))))))))))))))))))))))))))
)
(check-sat)
